\* Question_4b *\
Maximize
Objective_func: 60 A + 70 B + 40 C + 70 D + 17 E + 100 F
Subject To
additional_constraint: - C + D >= 0
main_constraint: 6 A + 7 B + 4 C + 9 D + 3 E + 8 F <= 20
Binaries
A
B
C
D
E
F
End
